(set-logic ALL)
(set-option :produce-models true)
(define-fun-rec str.toLower ((x String)) String
  (ite (= x "")
      ""
      (let ((Head (str.at x 0)))
        (str.++ 
          (ite (and (<= 65 (str.to_code Head)) 
                     (<= (str.to_code Head) 90))
               (str.from_code (+ (str.to_code Head) 32))
               Head)
          (str.toLower (str.substr x 1 (- (str.len x) 1)))))))
(declare-fun sym129 () String)
(declare-fun sym526 () String)
(declare-fun sym604 () String)
(declare-fun sym408 () String)
(declare-fun sym560 () String)
(declare-fun sym164 () String)
(declare-fun sym243 () String)
(declare-fun sym684 () String)
(declare-fun sym640 () String)
(declare-fun sym488 () String)
(declare-fun sym444 () String)
(declare-fun sym368 () String)
(declare-fun sym204 () String)
(declare-fun sym139 () String)
(declare-fun sym536 () String)
(declare-fun sym614 () String)
(declare-fun sym218 () String)
(declare-fun sym92 () String)
(declare-fun sym694 () String)
(declare-fun sym650 () String)
(declare-fun sym332 () String)
(declare-fun sym498 () String)
(declare-fun sym454 () String)
(declare-fun sym378 () String)
(declare-fun sym258 () String)
(declare-fun sym292 () String)
(declare-fun sym174 () String)
(declare-fun sym570 () String)
(declare-fun sym307 () String)
(declare-fun sym704 () String)
(declare-fun sym660 () String)
(declare-fun sym342 () String)
(declare-fun sym584 () String)
(declare-fun sym464 () String)
(declare-fun sym388 () String)
(declare-fun sym268 () String)
(declare-fun sym424 () String)
(declare-fun sym184 () String)
(declare-fun sym317 () String)
(declare-fun sym670 () String)
(declare-fun sym352 () String)
(declare-fun sym594 () String)
(declare-fun sym154 () String)
(declare-fun sym550 () String)
(declare-fun sym233 () String)
(declare-fun sym398 () String)
(declare-fun sym630 () String)
(declare-fun sym278 () String)
(declare-fun sym114 () String)
(declare-fun sym478 () String)
(declare-fun sym434 () String)
(declare-fun sym512 () String)
(declare-fun sym194 () String)

(assert (not (= (str.toLower sym424 )(str.toLower "name" ))))
(assert (= (str.toLower sym614 )(str.toLower "length" )))
(assert (not (= (str.toLower sym630 )(str.toLower "name" ))))
(assert (= (str.toLower sym292 )(str.toLower "name" )))
(assert (not (= (str.toLower sym560 )(str.toLower "description" ))))
(assert (= (str.toLower sym352 )(str.toLower "type" )))
(assert (= (str.toLower sym498 )(str.toLower "field" )))
(assert (not (= (str.toLower sym454 )(str.toLower "length" ))))
(assert (= (str.toLower sym114 )(str.toLower "name" )))
(assert (not (= (str.toLower sym488 )(str.toLower "description" ))))
(assert (not (= (str.toLower sym164 )(str.toLower "description" ))))
(assert (not (= (str.toLower sym174 )(str.toLower "table" ))))
(assert (not (= (str.toLower sym594 )(str.toLower "description" ))))
(assert (not (= (str.toLower sym233 )(str.toLower "name" ))))
(assert (not (= (str.toLower sym526 )(str.toLower "name" ))))
(assert (not (= (str.toLower sym268 )(str.toLower "description" ))))
(assert (not (= (str.toLower sym194 )(str.toLower "description" ))))
(assert (not (= (str.toLower sym378 )(str.toLower "description" ))))
(assert (not (= (str.toLower sym332 )(str.toLower "name" ))))
(assert (not (= (str.toLower sym694 )(str.toLower "description" ))))
(assert (= (str.toLower sym243 )(str.toLower "description" )))
(assert (not (= (str.toLower sym388 )(str.toLower "type" ))))
(assert (= (str.toLower sym92 )(str.toLower "database" )))
(assert (= (str.toLower sym536 )(str.toLower "description" )))
(assert (not (= (str.toLower sym398 )(str.toLower "length" ))))
(assert (not (= (str.toLower sym660 )(str.toLower "length" ))))
(assert (not (= (str.toLower sym342 )(str.toLower "description" ))))
(assert (= (str.toLower sym570 )(str.toLower "type" )))
(assert (= (str.toLower sym670 )(str.toLower "option" )))
(assert (not (= (str.toLower sym307 )(str.toLower "name" ))))
(assert (not (= (str.toLower sym478 )(str.toLower "name" ))))
(assert (= (str.toLower sym464 )(str.toLower "option" )))
(assert (not (= (str.toLower sym684 )(str.toLower "name" ))))
(assert (not (= (str.toLower sym154 )(str.toLower "name" ))))
(assert (not (= (str.toLower sym184 )(str.toLower "name" ))))
(assert (not (= (str.toLower sym584 )(str.toLower "name" ))))
(assert (= (str.toLower sym218 )(str.toLower "name" )))
(assert (= (str.toLower sym408 )(str.toLower "option" )))
(assert (= (str.toLower sym278 )(str.toLower "field" )))
(assert (not (= (str.toLower sym434 )(str.toLower "description" ))))
(assert (= (str.toLower sym512 )(str.toLower "name" )))
(assert (= "sql" "sql" ))
(assert (= (str.toLower sym317 )(str.toLower "description" )))
(assert (not (= (str.toLower sym258 )(str.toLower "name" ))))
(assert (not (= (str.toLower sym444 )(str.toLower "type" ))))
(assert (not (= (str.toLower sym550 )(str.toLower "name" ))))
(assert (not (= (str.toLower sym704 )(str.toLower "field" ))))
(assert (not (= (str.toLower sym640 )(str.toLower "description" ))))
(assert (= (str.toLower sym139 )(str.toLower "description" )))
(assert (not (= (str.toLower sym129 )(str.toLower "name" ))))
(assert (= (str.toLower sym204 )(str.toLower "table" )))
(assert (not (= (str.toLower sym368 )(str.toLower "name" ))))
(assert (not (= (str.toLower sym650 )(str.toLower "type" ))))
(assert (not (= (str.toLower sym604 )(str.toLower "type" ))))
(check-sat)
(get-model)
(exit)
